data;

set A := 266 132 434 952 864 996 902 546 562 584 594 518 800 522 464 726 32 792 578 348 524 878 296 652 104 200 510 16 178 222 512 368 240 122 636 668 694 284 128 502 202 148 174 820 602 986 598 836 18 954 146 82 264 588 874 672 552 50 778 350 692 500 586 134 486 292 514 476 752 456 252 450 432 168 130 646 68 4 958 710 408 216 300 388 612 772 482 62;
param T := 22000;

end;
